Version identifier: 20.1.0.0 | 2020-11-10 | 9bedb6d68
CPXPARAM_Threads                                 1
CPXPARAM_TimeLimit                               7200
CPXPARAM_MIP_Tolerances_MIPGap                   0
Generic callback                                 0x60
1 of 1 MIP starts provided solutions.
MIP start 'm1' defined initial solution with objective 2183.7819.
Tried aggregator 1 time.
Reduced MIP has 640801 rows, 640801 columns, and 1920800 nonzeros.
Reduced MIP has 800 binaries, 0 generals, 0 SOSs, and 0 indicators.
Presolve time = 0.63 sec. (607.18 ticks)
Probing time = 0.08 sec. (80.04 ticks)
Tried aggregator 1 time.
Reduced MIP has 640801 rows, 640801 columns, and 1920800 nonzeros.
Reduced MIP has 800 binaries, 0 generals, 0 SOSs, and 0 indicators.
Presolve time = 0.67 sec. (596.80 ticks)
Probing time = 0.08 sec. (80.04 ticks)
MIP emphasis: balance optimality and feasibility.
MIP search method: dynamic search.
Parallel mode: none, using 1 thread.
Root relaxation solution time = 0.21 sec. (246.83 ticks)

        Nodes                                         Cuts/
   Node  Left     Objective  IInf  Best Integer    Best Bound    ItCnt     Gap

*     0+    0                         2183.7819     4368.0000           100.02%
      0     0     2300.5096    35     2183.7819     4368.0000        0  100.02%
      0     2     2184.1293    40     2183.7819     2184.1234        0    0.02%
Elapsed time = 59.04 sec. (49015.92 ticks, tree = 0.01 MB, solutions = 1)
      1     3     2184.0056    39     2183.7819     2184.1176       78    0.02%
      2     4     2183.8916    41     2183.7819     2184.0040      266    0.01%
      3     5     2183.9685    30     2183.7819     2184.0015      290    0.01%
*     5     3      integral     0     2183.8933     2184.0015      369    0.00%
      6     2        cutoff           2183.8933     2184.0015      380    0.00%
*     7     0      integral     0     2184.0000     2184.0000      383    0.00%

User cuts applied:  2

Root node processing (before b&c):
  Real time             =   59.04 sec. (49005.76 ticks)
Sequential b&c:
  Real time             =   18.44 sec. (3217.89 ticks)
                          ------------
Total (root+branch&cut) =   77.47 sec. (52223.65 ticks)
@Parameters: 
is_S_cut                                true
is_add_all_yinF                         true
is_start_value                          true
is_usercut                              true
is_visualization                        false
uc_only_rootnode                        false

data                                    Qi
fn                                      data/Qi/instance_800_800.csv
mode                                    ZLP
solver                                  cplex

p                                       50
r                                       50

EPS                                     1.0e-06
EPS_vio                                 1.0e-04
beta                                    0.10
gap                                     0.00
nodelimit                               Inf
timelimit                               7200.00


@PrintInfos
ItCnt: 383
Current gap: 0.00 %
Termination Status: OPTIMAL
Primal Status: FEASIBLE_POINT
Solve Time: 77.47 sec
Objective Value: 2184.000000
Number of Nodes:      8

CutInfo: [phase] num / time (sec) 
ZLP             [phase1]     0 / 0.00 [rLC]     3 / 6.75 [rUC]     2 / 3.14 [sLC]     0 / 2.30 [sUC]     1 / 11.20 
OldSubmodular   [phase1]     0 / 0.00 [rLC]     0 / 0.00 [rUC]     0 / 0.00 [sLC]     0 / 0.00 [sUC]     0 / 0.00 
NewSubmodular   [phase1]     0 / 0.00 [rLC]     0 / 0.00 [rUC]     0 / 0.00 [sLC]     0 / 0.00 [sUC]     0 / 0.00 
PMP             [phase1]     0 / 0.00 [rLC]     4 / 2.93 [rUC]     2 / 1.18 [sLC]     2 / 1.39 [sUC]     9 / 5.76 
Separation Round: [phase1] 0  [rLC] 4  [rUC] 2  [sLC] 2  [sUC] 9
Root Best Bound 2184.004024
Root Best Integer: 2183.781864
Best Bound: 2184.000000
Best Integer: 2184.000000

